Route #1: 1 14 98 38 15 38 60 100 97 7 1 
Route #2: 1 38 101 92 45 87 17 62 86 99 38 1 
Route #3: 1 54 59 1 
Route #4: 1 27 55 5 56 26 57 76 73 1 
Route #5: 1 70 71 32 89 8 63 11 71 2 1 
Route #6: 1 29 77 78 4 51 34 52 31 71 28 1 
Route #7: 1 4 69 81 13 55 25 55 1 
Route #8: 1 22 73 75 23 42 58 16 58 1 
Route #9: 1 93 38 88 43 58 3 74 73 41 1 
Route #10: 1 53 8 20 50 48 49 83 1 
Route #11: 1 90 84 46 9 84 18 84 19 1 
Route #12: 1 61 84 85 6 94 38 96 95 1 
Route #13: 1 4 30 35 79 82 80 4 1 
Cost 1001.0
